p cnf 1415 2189
-17 24 29 101 0
29 -34 -101 102 0
-34 44 -102 103 0
44 -65 78 -103 0
-10 -21 -38 104 0
-38 41 -56 -104 0
-31 -81 105 106 0
-31 -81 105 -106 0
-31 -81 -105 106 0
-31 -81 -105 -106 0
-32 52 -57 107 0
-57 60 -99 -107 0
14 -24 28 108 0
28 31 -108 109 0
31 -33 -109 110 0
-33 -42 -110 111 0
-42 -68 -111 112 0
-68 -79 90 -112 0
17 22 29 113 0
29 -78 -113 114 0
-78 83 -96 -114 0
23 61 115 116 0
23 61 115 -116 0
23 61 -115 116 0
23 61 -115 -116 0
-26 36 54 117 0
54 61 62 -117 0
5 13 16 118 0
16 23 -118 119 0
23 -56 -119 120 0
-56 59 -120 121 0
59 -72 -89 -121 0
-10 -12 -51 122 0
-10 -12 -51 -122 0
-13 -18 21 123 0
21 35 -123 124 0
35 -46 -124 125 0
-46 68 -125 126 0
68 87 -93 -126 0
4 7 13 127 0
13 -29 -88 -127 0
-20 -46 61 -86 0
11 -13 46 128 0
46 57 -91 -128 0
20 21 62 -76 0
1 16 28 129 0
28 50 -129 130 0
50 59 99 -130 0
15 -18 60 131 0
15 -18 60 -131 0
-44 -48 132 133 0
-44 -48 132 -133 0
-44 -48 -132 133 0
-44 -48 -132 -133 0
52 83 -100 134 0
52 83 -100 -134 0
-34 56 -79 135 0
-79 -83 -95 -135 0
21 24 27 136 0
27 -30 -136 137 0
-30 -74 -137 138 0
-74 76 -138 139 0
76 -77 -139 140 0
-77 87 -140 141 0
87 -91 -141 142 0
-91 -94 98 -142 0
36 -47 -58 97 0
37 55 -60 143 0
37 55 -60 -143 0
8 -25 -64 144 0
-64 69 -144 145 0
69 73 -145 146 0
73 -85 -146 147 0
-85 87 91 -147 0
-9 -28 45 148 0
45 -70 -148 149 0
-70 92 96 -149 0
38 48 -57 150 0
38 48 -57 -150 0
34 38 -41 -89 0
-5 73 151 152 0
-5 73 151 -152 0
-5 73 -151 152 0
-5 73 -151 -152 0
38 -53 64 153 0
64 70 -153 154 0
70 73 -154 155 0
73 75 -89 -155 0
-12 -17 -24 156 0
-24 -43 -156 157 0
-43 -67 -157 158 0
-67 -72 -85 -158 0
49 54 -57 -70 0
38 -40 -43 159 0
-43 -64 -87 -159 0
19 -29 76 160 0
19 -29 76 -160 0
23 31 95 161 0
23 31 95 -161 0
69 70 -85 162 0
69 70 -85 -162 0
37 -46 67 83 0
28 -40 44 163 0
44 46 -163 164 0
46 -49 57 -164 0
-3 38 44 -81 0
5 -29 165 166 0
5 -29 165 -166 0
5 -29 -165 166 0
5 -29 -165 -166 0
-7 -17 28 167 0
28 29 -167 168 0
29 -70 -168 169 0
-70 -74 -78 -169 0
8 -29 42 170 0
8 -29 42 -170 0
25 59 -64 171 0
-64 -81 -171 172 0
-81 88 -172 173 0
88 93 -98 -173 0
45 -47 -52 174 0
-52 56 -174 175 0
56 62 -175 176 0
62 73 82 -176 0
16 -34 -47 177 0
-47 51 -177 178 0
51 63 -178 179 0
63 -66 -179 180 0
-66 72 -180 181 0
72 -78 98 -181 0
-4 -7 -23 99 0
-1 -10 -30 -84 0
-1 -11 -14 182 0
-14 17 -182 183 0
17 -25 -183 184 0
-25 -27 -71 -184 0
21 -44 -48 185 0
-48 89 100 -185 0
-5 -37 50 186 0
50 -84 99 -186 0
-28 -30 54 187 0
54 82 -187 188 0
82 -92 -100 -188 0
-39 -42 -67 80 0
43 -83 87 189 0
43 -83 87 -189 0
-31 56 79 84 0
37 -91 190 191 0
37 -91 190 -191 0
37 -91 -190 191 0
37 -91 -190 -191 0
3 37 -51 192 0
-51 -66 71 -192 0
-26 -38 55 193 0
-26 -38 55 -193 0
17 55 -61 194 0
-61 83 -194 195 0
83 84 -96 -195 0
-25 27 -47 196 0
-47 51 -196 197 0
51 -66 -197 198 0
-66 80 -198 199 0
80 83 85 -199 0
-49 69 89 200 0
89 92 93 -200 0
-23 43 -57 79 0
-34 66 77 201 0
-34 66 77 -201 0
-50 -82 85 202 0
-50 -82 85 -202 0
13 -22 25 203 0
25 45 -203 204 0
45 46 98 -204 0
-19 55 74 205 0
74 76 78 -205 0
72 77 206 207 0
72 77 206 -207 0
72 77 -206 207 0
72 77 -206 -207 0
1 -10 -22 208 0
-22 -50 -208 209 0
-50 -63 -73 -209 0
33 44 210 211 0
33 44 210 -211 0
33 44 -210 211 0
33 44 -210 -211 0
2 -32 38 -74 0
28 47 48 212 0
48 -83 92 -212 0
-4 -24 35 213 0
35 -40 -213 214 0
-40 -59 -214 215 0
-59 61 -215 216 0
61 66 -72 -216 0
6 69 -71 217 0
6 69 -71 -217 0
-8 51 53 218 0
53 -68 70 -218 0
-9 -76 -98 219 0
-9 -76 -98 -219 0
27 -71 -94 220 0
27 -71 -94 -220 0
-53 -66 88 221 0
-53 -66 88 -221 0
-10 12 -13 222 0
-10 12 -13 -222 0
29 -30 -44 223 0
-44 54 -223 224 0
54 -85 -87 -224 0
3 30 39 225 0
39 -51 -225 226 0
-51 -55 91 -226 0
24 -27 -72 227 0
24 -27 -72 -227 0
14 25 36 228 0
36 39 68 -228 0
-7 11 -22 -27 0
-9 -14 93 229 0
-9 -14 93 -229 0
32 33 -49 230 0
-49 53 -230 231 0
53 55 -231 232 0
55 76 -232 233 0
76 -83 -92 -233 0
24 61 76 234 0
24 61 76 -234 0
-5 -42 -67 235 0
-67 78 -235 236 0
78 79 -236 237 0
79 -94 -97 -237 0
56 59 81 -96 0
56 -77 89 -90 0
42 -48 -60 238 0
-60 -81 -238 239 0
-81 83 -239 240 0
83 84 -240 241 0
84 -86 -241 242 0
-86 88 -242 243 0
88 89 -243 244 0
89 -91 -96 -244 0
-34 55 -76 245 0
-34 55 -76 -245 0
6 17 -35 246 0
6 17 -35 -246 0
-19 27 28 247 0
28 47 -247 248 0
47 62 -248 249 0
62 -85 -94 -249 0
33 -69 250 251 0
33 -69 250 -251 0
33 -69 -250 251 0
33 -69 -250 -251 0
-12 17 34 252 0
34 -62 -252 253 0
-62 80 -98 -253 0
18 55 72 254 0
18 55 72 -254 0
-9 15 37 255 0
37 51 -255 256 0
51 -66 -256 257 0
-66 -82 -90 -257 0
66 -70 258 259 0
66 -70 258 -259 0
66 -70 -258 259 0
66 -70 -258 -259 0
-31 -38 260 261 0
-31 -38 260 -261 0
-31 -38 -260 261 0
-31 -38 -260 -261 0
-4 -9 56 262 0
56 70 -262 263 0
70 -81 92 -263 0
26 58 264 265 0
26 58 264 -265 0
26 58 -264 265 0
26 58 -264 -265 0
39 46 55 266 0
55 57 -266 267 0
57 62 -267 268 0
62 73 -268 269 0
73 -87 -269 270 0
-87 -90 100 -270 0
-2 13 14 271 0
14 21 -271 272 0
21 -31 -272 273 0
-31 -58 -273 274 0
-58 66 75 -274 0
4 -9 20 275 0
20 -37 -275 276 0
-37 42 -276 277 0
42 -62 -93 -277 0
20 24 -53 -85 0
-6 25 -37 278 0
-37 62 -79 -278 0
-8 27 60 -93 0
5 15 29 279 0
29 -35 -279 280 0
-35 38 -280 281 0
38 56 -58 -281 0
14 43 282 283 0
14 43 282 -283 0
14 43 -282 283 0
14 43 -282 -283 0
4 -6 -56 -94 0
76 77 -82 -96 0
18 60 88 284 0
18 60 88 -284 0
-3 -7 20 285 0
20 25 -285 286 0
25 -38 -286 287 0
-38 42 -287 288 0
42 -64 -288 289 0
-64 68 -100 -289 0
-60 83 -98 290 0
-60 83 -98 -290 0
3 -13 -24 291 0
-24 -61 -291 292 0
-61 85 -92 -292 0
2 4 22 293 0
22 58 -293 294 0
58 -61 68 -294 0
27 30 -57 295 0
-57 63 88 -295 0
-13 16 -26 77 0
1 32 296 297 0
1 32 296 -297 0
1 32 -296 297 0
1 32 -296 -297 0
5 20 35 298 0
35 42 -298 299 0
42 -47 100 -299 0
-59 99 300 301 0
-59 99 300 -301 0
-59 99 -300 301 0
-59 99 -300 -301 0
5 -17 -58 302 0
-58 61 -302 303 0
61 -82 -99 -303 0
-2 -4 13 304 0
13 -19 -304 305 0
-19 -23 -305 306 0
-23 -72 -306 307 0
-72 91 96 -307 0
22 27 -42 308 0
-42 -68 -308 309 0
-68 79 81 -309 0
7 -42 -71 310 0
7 -42 -71 -310 0
52 80 311 312 0
52 80 311 -312 0
52 80 -311 312 0
52 80 -311 -312 0
-19 -29 -52 313 0
-52 59 -313 314 0
59 -65 96 -314 0
1 53 -57 315 0
1 53 -57 -315 0
4 18 19 316 0
19 -54 -316 317 0
-54 85 -317 318 0
85 88 -95 -318 0
26 27 -34 319 0
-34 -39 -45 -319 0
-13 20 -21 320 0
-21 -58 -320 321 0
-58 67 -321 322 0
67 -70 -322 323 0
-70 -94 -98 -323 0
-3 -35 -41 324 0
-41 -54 -324 325 0
-54 81 -325 326 0
81 83 100 -326 0
20 27 -28 327 0
-28 66 -327 328 0
66 -76 92 -328 0
-9 14 -21 329 0
-21 -36 -329 330 0
-36 -40 -330 331 0
-40 -45 -75 -331 0
12 -38 -52 332 0
-52 -56 -332 333 0
-56 -60 -333 334 0
-60 70 -89 -334 0
23 30 -41 335 0
-41 -70 72 -335 0
-13 -40 -43 56 0
-5 52 -57 336 0
-57 64 -336 337 0
64 65 100 -337 0
9 -19 39 338 0
39 41 -338 339 0
41 54 -339 340 0
54 55 -340 341 0
55 71 -341 342 0
71 75 -81 -342 0
34 47 50 343 0
50 52 -343 344 0
52 -66 -83 -344 0
-23 -46 -52 345 0
-23 -46 -52 -345 0
35 36 -42 346 0
-42 63 -82 -346 0
32 58 -71 347 0
-71 -81 -92 -347 0
-15 23 45 348 0
45 51 94 -348 0
-6 19 -60 349 0
-60 -67 94 -349 0
51 -64 -87 350 0
51 -64 -87 -350 0
-13 -25 49 351 0
49 50 -61 -351 0
23 -28 35 352 0
35 62 -352 353 0
62 -63 -353 354 0
-63 -74 -354 355 0
-74 -89 -92 -355 0
3 -12 -15 356 0
-15 -51 -356 357 0
-51 -56 -357 358 0
-56 62 -358 359 0
62 63 91 -359 0
-9 13 71 -100 0
-60 65 94 360 0
-60 65 94 -360 0
47 -69 78 361 0
78 -79 -82 -361 0
-9 -84 94 362 0
-9 -84 94 -362 0
17 -18 35 363 0
35 36 -363 364 0
36 47 -364 365 0
47 55 -365 366 0
55 -63 -70 -366 0
-31 35 -43 367 0
-43 46 -367 368 0
46 -47 -368 369 0
-47 81 93 -369 0
-4 -47 63 370 0
63 81 -87 -370 0
66 -88 -92 371 0
66 -88 -92 -371 0
28 -41 58 82 0
-24 -33 65 372 0
-24 -33 65 -372 0
-37 -39 45 93 0
1 2 -11 373 0
-11 -34 -373 374 0
-34 -40 75 -374 0
12 22 23 375 0
23 -26 -375 376 0
-26 -36 -376 377 0
-36 51 -62 -377 0
-4 7 -13 378 0
-13 16 -378 379 0
16 71 95 -379 0
-9 25 65 380 0
-9 25 65 -380 0
15 -22 31 381 0
31 -38 -381 382 0
-38 62 71 -382 0
-17 20 26 383 0
26 -33 -383 384 0
-33 -36 -384 385 0
-36 57 -385 386 0
57 -65 -386 387 0
-65 -82 100 -387 0
-2 -18 21 388 0
21 -24 -388 389 0
-24 -54 -389 390 0
-54 91 -95 -390 0
10 -11 -29 391 0
-29 -69 -391 392 0
-69 72 -392 393 0
72 -84 97 -393 0
17 56 68 394 0
68 -90 -99 -394 0
21 48 -76 78 0
-11 66 395 396 0
-11 66 395 -396 0
-11 66 -395 396 0
-11 66 -395 -396 0
-4 19 -56 -85 0
-3 23 -37 397 0
-37 -49 -397 398 0
-49 78 -84 -398 0
-17 -31 37 399 0
37 44 -399 400 0
44 71 -400 401 0
71 -75 -94 -401 0
3 -71 79 402 0
3 -71 79 -402 0
-65 78 403 404 0
-65 78 403 -404 0
-65 78 -403 404 0
-65 78 -403 -404 0
-16 32 47 405 0
47 -53 -405 406 0
-53 -63 70 -406 0
-18 42 78 88 0
-8 -19 -24 407 0
-24 95 -96 -407 0
-2 -57 408 409 0
-2 -57 408 -409 0
-2 -57 -408 409 0
-2 -57 -408 -409 0
-11 -26 410 411 0
-11 -26 410 -411 0
-11 -26 -410 411 0
-11 -26 -410 -411 0
3 -13 28 412 0
28 46 98 -412 0
-10 -22 -28 413 0
-28 51 -413 414 0
51 56 -414 415 0
56 72 -415 416 0
72 74 -416 417 0
74 -82 -100 -417 0
13 53 58 73 0
5 -7 -27 418 0
5 -7 -27 -418 0
13 -14 26 419 0
26 71 -91 -419 0
-19 22 24 -45 0
2 -7 35 420 0
35 46 -420 421 0
46 -48 -421 422 0
-48 -52 -422 423 0
-52 79 -423 424 0
79 95 97 -424 0
-19 23 -40 53 0
-7 -45 -80 425 0
-7 -45 -80 -425 0
-5 11 -65 426 0
-65 -77 97 -426 0
5 7 60 -96 0
15 28 -48 427 0
-48 -57 -427 428 0
-57 -64 -428 429 0
-64 68 -81 -429 0
-19 -30 -47 430 0
-47 50 -65 -430 0
-8 -40 -90 431 0
-8 -40 -90 -431 0
-41 61 -66 69 0
-5 23 -33 432 0
-33 37 -432 433 0
37 40 -433 434 0
40 -42 -434 435 0
-42 -51 -435 436 0
-51 -77 -436 437 0
-77 -88 99 -437 0
26 31 38 438 0
38 -87 92 -438 0
32 70 439 440 0
32 70 439 -440 0
32 70 -439 440 0
32 70 -439 -440 0
-35 45 63 441 0
63 70 71 -441 0
14 22 25 442 0
25 32 -442 443 0
32 -65 -443 444 0
-65 68 -444 445 0
68 -81 -98 -445 0
-2 -19 -21 -60 0
5 -22 -27 446 0
-27 30 -446 447 0
30 44 -447 448 0
44 -55 -448 449 0
-55 77 96 -449 0
13 16 22 450 0
22 -38 -97 -450 0
-29 -55 70 -95 0
20 -22 55 451 0
55 66 -100 -451 0
8 29 30 452 0
30 71 -85 -452 0
10 25 37 453 0
37 59 68 -453 0
24 -27 69 454 0
24 -27 69 -454 0
-9 -53 -57 455 0
-9 -53 -57 -455 0
-4 61 92 456 0
-4 61 92 -456 0
-3 7 -43 457 0
-43 65 -457 458 0
65 -88 -92 -458 0
6 30 33 459 0
33 36 -459 460 0
36 -39 -460 461 0
-39 -83 -461 462 0
-83 85 -462 463 0
85 -86 -463 464 0
-86 96 -100 -464 0
45 -56 -67 465 0
45 -56 -67 -465 0
46 64 -69 466 0
46 64 -69 -466 0
1 5 17 467 0
17 -34 -467 468 0
-34 -73 -468 469 0
-73 78 -469 470 0
78 82 -470 471 0
82 -94 -471 472 0
-94 96 100 -472 0
-18 -37 54 -79 0
47 57 -66 473 0
47 57 -66 -473 0
43 47 -50 -98 0
-14 82 474 475 0
-14 82 474 -475 0
-14 82 -474 475 0
-14 82 -474 -475 0
47 -62 73 476 0
73 79 -476 477 0
79 82 -477 478 0
82 84 -98 -478 0
-21 -26 -33 479 0
-33 -52 -479 480 0
-52 -76 -480 481 0
-76 -81 -94 -481 0
58 63 -66 -79 0
47 -49 -52 482 0
-52 -73 -96 -482 0
4 28 -38 85 0
32 40 483 484 0
32 40 483 -484 0
32 40 -483 484 0
32 40 -483 -484 0
78 79 -94 485 0
78 79 -94 -485 0
46 -55 76 92 0
37 -49 53 486 0
53 55 -486 487 0
55 -58 66 -487 0
-12 47 53 -90 0
14 -38 488 489 0
14 -38 488 -489 0
14 -38 -488 489 0
14 -38 -488 -489 0
-16 -26 37 490 0
37 38 -490 491 0
38 -79 -491 492 0
-79 -83 -87 -492 0
2 -7 17 493 0
17 -38 51 -493 0
34 68 -73 494 0
-73 -90 97 -494 0
7 54 -56 495 0
-56 -61 -495 496 0
-61 65 -496 497 0
65 71 -497 498 0
71 82 91 -498 0
8 25 -43 499 0
-43 -56 -499 500 0
-56 60 -500 501 0
60 72 -501 502 0
72 -75 -502 503 0
-75 81 -87 -503 0
-13 -16 -32 504 0
-13 -16 -32 -504 0
-10 -19 -39 -93 0
9 -10 -20 505 0
-20 -23 -505 506 0
-23 26 -506 507 0
26 -34 -507 508 0
-34 -36 -80 -508 0
8 30 -53 509 0
-53 -57 98 -509 0
-1 -9 -14 510 0
-14 -46 -510 511 0
-46 59 -93 -511 0
-37 -39 63 91 0
-48 -51 -76 89 0
52 -92 96 512 0
52 -92 96 -512 0
-40 65 88 93 0
46 -100 513 514 0
46 -100 513 -514 0
46 -100 -513 514 0
46 -100 -513 -514 0
12 46 -60 515 0
-60 -75 80 -515 0
-5 -35 -47 64 0
26 64 -70 516 0
-70 92 93 -516 0
1 2 -34 517 0
-34 36 -517 518 0
36 -56 -518 519 0
-56 60 -519 520 0
60 -75 -520 521 0
-75 89 -521 522 0
89 92 94 -522 0
-58 78 98 523 0
-58 78 98 -523 0
-32 52 -66 88 0
-43 75 86 524 0
-43 75 86 -524 0
7 -59 -91 94 0
22 -31 34 525 0
34 54 55 -525 0
-28 64 83 526 0
83 85 87 -526 0
81 86 527 528 0
81 86 527 -528 0
81 86 -527 528 0
81 86 -527 -528 0
10 -19 -31 529 0
-31 -59 -529 530 0
-59 -72 -82 -530 0
42 53 531 532 0
42 53 531 -532 0
42 53 -531 532 0
42 53 -531 -532 0
1 11 -41 533 0
-41 47 -83 -533 0
37 56 57 -92 0
-13 -33 44 534 0
44 -49 -534 535 0
-49 -68 -535 536 0
-68 70 -536 537 0
70 75 -81 -537 0
15 78 -80 538 0
15 78 -80 -538 0
-7 -17 60 539 0
60 62 -539 540 0
62 -77 79 -540 0
-3 -18 -85 541 0
-3 -18 -85 -541 0
36 -80 542 543 0
36 -80 542 -543 0
36 -80 -542 543 0
36 -80 -542 -543 0
-62 -75 97 544 0
-62 -75 97 -544 0
-19 21 -22 545 0
-19 21 -22 -545 0
38 -39 -53 546 0
-53 63 -546 547 0
63 -94 -96 -547 0
12 39 48 548 0
48 -60 -548 549 0
-60 -64 100 -549 0
33 -36 -81 550 0
33 -36 -81 -550 0
23 34 45 551 0
45 48 77 -551 0
2 -16 20 552 0
20 -31 -36 -552 0
-1 -18 -23 553 0
-1 -18 -23 -553 0
41 42 -58 554 0
-58 62 -554 555 0
62 64 -555 556 0
64 85 -92 -556 0
-3 -6 33 557 0
33 70 85 -557 0
-5 -14 -51 558 0
-51 -76 -558 559 0
-76 87 88 -559 0
65 68 90 560 0
65 68 90 -560 0
-5 65 -86 561 0
-86 98 -99 -561 0
51 -57 -69 562 0
-69 -90 -562 563 0
-90 92 -563 564 0
92 93 -564 565 0
93 -95 -565 566 0
-95 97 -566 567 0
97 98 -100 -567 0
-43 64 -85 568 0
-43 64 -85 -568 0
-3 15 26 -44 0
-28 36 37 569 0
37 56 -569 570 0
56 71 -94 -570 0
-7 42 -78 571 0
-7 42 -78 -571 0
-21 26 43 572 0
43 -71 89 -572 0
27 64 81 573 0
27 64 81 -573 0
-18 24 46 574 0
46 60 -574 575 0
60 -75 -575 576 0
-75 -91 -99 -576 0
75 -79 577 578 0
75 -79 577 -578 0
75 -79 -577 578 0
75 -79 -577 -578 0
1 -40 -47 579 0
1 -40 -47 -579 0
-13 -18 65 580 0
65 79 -90 -580 0
9 35 67 581 0
9 35 67 -581 0
48 55 64 582 0
64 66 -582 583 0
66 71 -583 584 0
71 82 -584 585 0
82 -96 -99 -585 0
-2 -11 22 586 0
22 23 -586 587 0
23 30 -587 588 0
30 -40 -588 589 0
-40 -67 -589 590 0
-67 75 84 -590 0
13 -18 29 591 0
29 -46 -591 592 0
-46 51 -71 -592 0
29 33 -62 -94 0
-2 -15 34 593 0
34 -46 -593 594 0
-46 71 -88 -594 0
-17 36 69 595 0
-17 36 69 -595 0
14 24 38 596 0
38 -44 -596 597 0
-44 47 -597 598 0
47 65 -67 -598 0
-3 23 52 599 0
-3 23 52 -599 0
-5 13 -15 -65 0
85 86 -91 600 0
85 86 -91 -600 0
27 69 97 601 0
27 69 97 -601 0
-9 20 602 603 0
-9 20 602 -603 0
-9 20 -602 603 0
-9 20 -602 -603 0
-7 -12 -16 604 0
-16 29 -604 605 0
29 34 -605 606 0
34 -47 -606 607 0
-47 51 -607 608 0
51 -73 77 -608 0
-1 -69 92 609 0
-1 -69 92 -609 0
12 -22 -33 610 0
-33 -70 94 -610 0
11 13 31 611 0
31 67 -611 612 0
67 -70 77 -612 0
36 39 -66 613 0
-66 72 97 -613 0
-22 25 -35 86 0
9 10 41 614 0
9 10 41 -614 0
8 14 29 615 0
29 44 -615 616 0
44 51 -56 -616 0
-8 -68 617 618 0
-8 -68 617 -618 0
-8 -68 -617 618 0
-8 -68 -617 -618 0
5 14 -26 619 0
-26 -67 -619 620 0
-67 70 -91 -620 0
-11 -13 22 621 0
22 -28 -621 622 0
-28 -32 -622 623 0
-32 -81 100 -623 0
31 36 -51 624 0
-51 -77 -624 625 0
-77 88 90 -625 0
16 -51 -80 626 0
16 -51 -80 -626 0
5 61 89 627 0
5 61 89 -627 0
-28 -38 -61 628 0
-61 68 -74 -628 0
-4 10 62 -66 0
13 27 28 629 0
28 -63 -629 630 0
-63 94 97 -630 0
-3 -7 35 631 0
35 36 -631 632 0
36 -43 -632 633 0
-43 -48 -54 -633 0
9 -22 29 634 0
29 -30 -634 635 0
-30 -67 -635 636 0
-67 76 -79 -636 0
1 -12 -44 637 0
-44 -50 -637 638 0
-50 -63 -638 639 0
-63 90 92 -639 0
29 36 -37 640 0
-37 75 -85 -640 0
-18 23 -30 641 0
-30 -45 -641 642 0
-45 -49 -642 643 0
-49 -54 -84 -643 0
21 -47 -61 644 0
-61 -65 -644 645 0
-65 -69 -645 646 0
-69 79 -98 -646 0
32 39 -50 647 0
-50 -79 81 -647 0
9 -22 -49 648 0
-49 -52 65 -648 0
-14 61 -66 649 0
-66 73 74 -649 0
18 -28 48 650 0
48 50 -650 651 0
50 63 -651 652 0
63 64 -652 653 0
64 80 -653 654 0
80 84 -90 -654 0
43 56 59 655 0
59 61 -655 656 0
61 -75 -92 -656 0
-32 -55 -61 657 0
-32 -55 -61 -657 0
-1 44 45 658 0
45 -51 -658 659 0
-51 72 -91 -659 0
3 41 67 660 0
67 -80 -90 -660 0
3 -24 32 661 0
32 54 60 -661 0
-15 28 -69 -76 0
60 -73 -96 662 0
60 -73 -96 -662 0
-1 -22 -34 663 0
-34 58 -663 664 0
58 59 -70 -664 0
32 -37 44 665 0
44 71 -665 666 0
71 -72 -666 667 0
-72 -83 -98 -667 0
-9 12 -21 668 0
-21 -24 -668 669 0
-24 -60 -669 670 0
-60 -65 -670 671 0
-65 71 -671 672 0
71 72 100 -672 0
3 -18 22 80 0
-69 74 673 674 0
-69 74 673 -674 0
-69 74 -673 674 0
-69 74 -673 -674 0
3 56 -78 675 0
-78 87 -675 676 0
87 -88 -91 -676 0
-18 -93 677 678 0
-18 -93 677 -678 0
-18 -93 -677 678 0
-18 -93 -677 -678 0
2 26 -27 679 0
-27 44 -679 680 0
44 45 -680 681 0
45 56 -681 682 0
56 64 -682 683 0
64 -72 -79 -683 0
-40 44 -52 684 0
-52 55 -684 685 0
55 -56 90 -685 0
-1 -13 -56 686 0
-56 72 -686 687 0
72 90 -96 -687 0
75 -97 688 689 0
75 -97 688 -689 0
75 -97 -688 689 0
75 -97 -688 -689 0
37 -50 67 91 0
2 -33 -42 74 0
-46 -48 54 690 0
-46 -48 54 -690 0
10 11 -20 691 0
-20 -43 -691 692 0
-43 -49 84 -692 0
4 21 31 693 0
31 32 -693 694 0
32 -35 -694 695 0
-35 -45 -695 696 0
-45 60 -71 -696 0
-13 16 -22 697 0
-22 25 80 -697 0
-18 34 74 698 0
-18 34 74 -698 0
24 -31 40 699 0
40 -47 -699 700 0
-47 71 80 -700 0
-4 -26 29 701 0
29 35 -701 702 0
35 -42 -702 703 0
-42 -45 -703 704 0
-45 66 -704 705 0
66 -74 -91 -705 0
6 -11 -27 706 0
-27 30 -706 707 0
30 -33 -707 708 0
-33 -63 100 -708 0
-8 19 -20 709 0
-20 -38 -709 710 0
-38 -78 -710 711 0
-78 81 -93 -711 0
26 65 77 -99 0
30 57 -85 87 0
-20 75 712 713 0
-20 75 712 -713 0
-20 75 -712 713 0
-20 75 -712 -713 0
-13 28 -65 -94 0
-3 -12 32 714 0
32 -46 -714 715 0
-46 -58 -715 716 0
-58 87 -93 -716 0
-26 -40 46 717 0
46 53 -717 718 0
53 80 -84 -718 0
12 -80 88 719 0
12 -80 88 -719 0
-74 87 720 721 0
-74 87 720 -721 0
-74 87 -720 721 0
-74 87 -720 -721 0
-25 41 56 722 0
56 -62 -722 723 0
-62 -72 79 -723 0
4 -5 -27 724 0
-27 51 -724 725 0
51 87 97 -725 0
-17 -28 -33 726 0
-17 -28 -33 -726 0
-11 -66 727 728 0
-11 -66 727 -728 0
-11 -66 -727 728 0
-11 -66 -727 -728 0
7 -20 -35 729 0
7 -20 -35 -729 0
-9 12 -22 730 0
-22 37 55 -730 0
-19 -31 -37 731 0
-37 60 -731 732 0
60 65 -732 733 0
65 81 -733 734 0
81 83 -91 -734 0
22 62 67 82 0
14 -16 -36 735 0
14 -16 -36 -735 0
22 -23 35 736 0
35 80 -100 -736 0
4 6 -28 737 0
-28 31 -737 738 0
31 33 -54 -738 0
11 -16 44 739 0
44 55 -739 740 0
55 -57 -740 741 0
-57 -61 88 -741 0
-28 32 -49 62 0
6 -16 -54 -89 0
-5 -14 20 742 0
20 -74 -86 -742 0
14 16 69 743 0
14 16 69 -743 0
24 37 -57 744 0
-57 -66 -744 745 0
-66 -73 -745 746 0
-73 77 -90 -746 0
-28 -39 -56 747 0
-56 59 -74 -747 0
-17 -49 -99 748 0
-17 -49 -99 -748 0
8 -50 70 749 0
70 -75 78 -749 0
1 -14 32 750 0
32 -42 -750 751 0
-42 46 -751 752 0
46 49 -752 753 0
49 -51 -753 754 0
-51 -60 -754 755 0
-60 -86 -97 -755 0
35 40 47 -96 0
41 79 756 757 0
41 79 756 -757 0
41 79 -756 757 0
41 79 -756 -757 0
-7 -44 54 758 0
54 72 -758 759 0
72 79 80 -759 0
23 31 34 760 0
34 41 -760 761 0
41 -74 -761 762 0
-74 77 -90 -762 0
5 -11 -28 763 0
-28 -30 -69 -763 0
14 -31 -36 764 0
-36 39 -764 765 0
39 53 -765 766 0
53 -64 86 -766 0
-4 22 25 767 0
25 31 -47 -767 0
-9 -38 -64 79 0
29 -31 64 75 0
17 38 39 768 0
39 80 -94 -768 0
19 34 46 769 0
46 68 77 -769 0
33 -36 78 770 0
33 -36 78 -770 0
1 -18 -62 -66 0
-1 -13 70 771 0
-1 -13 70 -771 0
5 -9 -12 772 0
-12 16 -772 773 0
16 -52 -773 774 0
-52 74 -97 -774 0
15 39 42 775 0
42 45 -775 776 0
45 -48 -776 777 0
-48 -92 -777 778 0
-92 94 -95 -778 0
54 -65 -76 779 0
54 -65 -76 -779 0
-3 5 9 780 0
9 55 -780 781 0
55 73 -78 -781 0
10 14 26 782 0
26 -43 -782 783 0
-43 -82 -783 784 0
-82 87 91 -784 0
-27 -46 63 -88 0
-7 56 66 -75 0
52 56 -59 785 0
52 56 -59 -785 0
-7 -23 91 786 0
-7 -23 91 -786 0
-3 56 -71 787 0
-71 82 -787 788 0
82 88 -788 789 0
88 91 93 -789 0
-30 -35 -42 790 0
-42 -61 -790 791 0
-61 -85 -90 -791 0
-5 67 72 792 0
72 -75 -88 -792 0
56 -58 -61 -82 0
13 37 -47 94 0
-3 41 49 793 0
-3 41 49 -793 0
1 87 88 794 0
1 87 88 -794 0
55 -64 85 795 0
55 -64 85 -795 0
46 -58 62 796 0
62 64 -796 797 0
64 -67 75 -797 0
-21 56 62 -99 0
23 -47 798 799 0
23 -47 798 -799 0
23 -47 -798 799 0
23 -47 -798 -799 0
-25 -35 46 800 0
46 47 -800 801 0
47 -88 -801 802 0
-88 -92 -96 -802 0
6 11 -16 803 0
-16 26 -803 804 0
26 -47 60 -804 0
43 77 -82 -99 0
16 63 -65 805 0
-65 -70 -805 806 0
-70 74 -806 807 0
74 80 -807 808 0
80 91 100 -808 0
17 34 -52 809 0
-52 -65 -809 810 0
-65 69 -810 811 0
69 81 -811 812 0
81 -84 -812 813 0
-84 90 -96 -813 0
-2 -22 -25 -41 0
-19 -28 -48 814 0
-19 -28 -48 -814 0
7 18 -19 815 0
-19 -29 -815 816 0
-29 -32 -816 817 0
-32 35 -817 818 0
35 -43 -818 819 0
-43 -45 -89 -819 0
-2 17 39 820 0
39 -62 -66 -820 0
-10 -18 -23 821 0
-23 -55 68 -821 0
-46 -48 72 100 0
-1 5 -57 822 0
-57 -60 -822 823 0
-60 -85 98 -823 0
2 61 824 825 0
2 61 824 -825 0
2 61 -824 825 0
2 61 -824 -825 0
-9 -49 74 97 0
21 55 -69 826 0
-69 -84 89 -826 0
1 2 -14 827 0
-14 -44 -827 828 0
-44 -56 73 -828 0
1 3 35 829 0
35 73 -79 -829 0
7 10 11 830 0
11 -43 -830 831 0
-43 45 -831 832 0
45 -65 -832 833 0
-65 69 -833 834 0
69 -84 98 -834 0
-67 87 835 836 0
-67 87 835 -836 0
-67 87 -835 836 0
-67 87 -835 -836 0
-41 61 -75 97 0
3 -52 84 95 0
16 -68 -100 837 0
16 -68 -100 -837 0
31 -40 43 838 0
43 63 64 -838 0
-37 73 92 839 0
92 94 96 -839 0
90 95 840 841 0
90 95 840 -841 0
90 95 -840 841 0
90 95 -840 -841 0
19 -28 -40 842 0
-40 -68 -842 843 0
-68 -81 -91 -843 0
51 62 844 845 0
51 62 844 -845 0
51 62 -844 845 0
51 62 -844 -845 0
-1 10 20 846 0
20 -50 -846 847 0
-50 56 -92 -847 0
46 65 66 848 0
46 65 66 -848 0
-22 -42 53 849 0
53 -58 -849 850 0
-58 -77 -850 851 0
-77 79 -851 852 0
79 84 -90 -852 0
24 87 -89 853 0
24 87 -89 -853 0
-16 -26 69 854 0
69 71 -854 855 0
71 -86 88 -855 0
-12 -27 -94 856 0
-12 -27 -94 -856 0
6 45 -89 857 0
6 45 -89 -857 0
-71 -84 858 859 0
-71 -84 858 -859 0
-71 -84 -858 859 0
-71 -84 -858 -859 0
-3 -5 -28 860 0
-28 30 -31 -860 0
9 47 -48 861 0
-48 -62 72 -861 0
21 48 57 862 0
57 -69 -73 -862 0
42 -45 -90 863 0
42 -45 -90 -863 0
32 43 54 864 0
54 57 86 -864 0
11 -25 29 865 0
29 -40 -45 -865 0
-1 -10 -27 -32 0
50 51 -67 866 0
-67 71 -866 867 0
71 73 94 -867 0
-12 -15 42 868 0
42 79 94 -868 0
-14 -23 -60 869 0
-60 -85 -869 870 0
-85 96 97 -870 0
7 -8 74 871 0
74 77 99 -871 0
1 2 -4 872 0
-4 6 -872 873 0
6 7 -873 874 0
7 -9 -874 875 0
-9 -14 -875 876 0
-14 74 -95 -876 0
60 -66 -78 -99 0
-52 73 -94 877 0
-52 73 -94 -877 0
-3 -12 24 878 0
24 35 -53 -878 0
-37 45 46 879 0
46 65 80 -879 0
-16 51 -87 880 0
-16 51 -87 -880 0
-30 35 52 881 0
52 -80 98 -881 0
-8 36 73 90 0
-27 33 55 882 0
55 69 -882 883 0
69 -84 -100 -883 0
84 -88 884 885 0
84 -88 884 -885 0
84 -88 -884 885 0
84 -88 -884 -885 0
10 -49 -56 886 0
10 -49 -56 -886 0
-22 -27 74 887 0
74 88 -99 -887 0
-5 -8 18 888 0
18 44 76 -888 0
57 64 73 889 0
73 75 -889 890 0
75 80 91 -890 0
-11 -20 31 891 0
31 32 -891 892 0
32 39 -892 893 0
39 -49 -893 894 0
-49 -76 -894 895 0
-76 84 93 -895 0
-3 22 -27 896 0
-27 38 -896 897 0
38 -55 -897 898 0
-55 60 -80 -898 0
38 42 -71 899 0
38 42 -71 -899 0
-11 -24 43 900 0
43 -55 -900 901 0
-55 80 -97 -901 0
-26 45 78 902 0
-26 45 78 -902 0
23 33 47 903 0
47 -53 -903 904 0
-53 56 -904 905 0
56 74 -76 -905 0
-12 32 61 906 0
-12 32 61 -906 0
-14 22 -24 -74 0
6 94 95 -100 0
36 78 907 908 0
36 78 907 -908 0
36 78 -907 908 0
36 78 -907 -908 0
-18 29 909 910 0
-18 29 909 -910 0
-18 29 -909 910 0
-18 29 -909 -910 0
1 -16 -21 911 0
-21 -25 -911 912 0
-25 38 -912 913 0
38 43 -913 914 0
43 -56 -914 915 0
-56 60 -915 916 0
60 -82 86 -916 0
3 -10 -78 917 0
3 -10 -78 -917 0
21 -31 -42 -79 0
20 22 40 918 0
40 76 -918 919 0
76 -79 86 -919 0
6 -37 920 921 0
6 -37 920 -921 0
6 -37 -920 921 0
6 -37 -920 -921 0
45 48 -75 81 0
-31 34 -44 95 0
18 19 50 922 0
18 19 50 -922 0
17 23 38 923 0
38 53 -923 924 0
53 60 -65 -924 0
-17 -77 925 926 0
-17 -77 925 -926 0
-17 -77 -925 926 0
-17 -77 -925 -926 0
9 14 23 927 0
23 -35 -927 928 0
-35 -76 -928 929 0
-76 79 -100 -929 0
-20 -22 31 930 0
31 -37 -930 931 0
-37 -41 -90 -931 0
40 45 -60 932 0
-60 -86 -932 933 0
-86 97 99 -933 0
25 -60 -89 934 0
25 -60 -89 -934 0
14 70 98 935 0
14 70 98 -935 0
-37 -47 -70 936 0
-70 77 -83 -936 0
3 6 -13 937 0
-13 19 -937 938 0
19 71 -75 -938 0
22 36 37 -72 0
-12 -16 44 939 0
44 45 -939 940 0
45 -52 -940 941 0
-52 -57 -63 -941 0
1 18 -31 942 0
-31 38 -942 943 0
38 -39 -943 944 0
-39 -76 -944 945 0
-76 85 -88 -945 0
10 -21 -53 946 0
-53 -59 -946 947 0
-59 -72 99 -947 0
38 45 -46 948 0
-46 84 -94 -948 0
-7 -27 32 949 0
32 -39 -949 950 0
-39 -54 -950 951 0
-54 -58 -951 952 0
-58 -63 -93 -952 0
30 -56 -70 953 0
-70 -74 -953 954 0
-74 -78 88 -954 0
41 48 -59 955 0
-59 -88 90 -955 0
18 -31 -58 956 0
-58 -61 74 -956 0
-23 70 -75 957 0
-75 82 83 -957 0
-1 27 -37 958 0
-37 57 -958 959 0
57 59 -959 960 0
59 72 -960 961 0
72 73 -961 962 0
73 89 -962 963 0
89 93 -99 -963 0
52 65 68 964 0
68 70 -84 -964 0
-41 -64 -70 965 0
-41 -64 -70 -965 0
-10 53 54 966 0
54 -60 -966 967 0
-60 81 -100 -967 0
12 50 76 968 0
76 -89 -99 -968 0
12 -33 41 969 0
41 63 69 -969 0
-5 -24 37 970 0
37 -78 -85 -970 0
69 -82 971 972 0
69 -82 971 -972 0
69 -82 -971 972 0
69 -82 -971 -972 0
-7 -10 -31 973 0
-31 -43 -973 974 0
-43 67 -974 975 0
67 68 -79 -975 0
9 41 -46 976 0
-46 53 -976 977 0
53 80 -977 978 0
80 -81 -92 -978 0
-18 21 -30 979 0
-30 -33 -979 980 0
-33 -69 -980 981 0
-69 -74 -981 982 0
-74 80 81 -982 0
12 -27 31 89 0
-78 83 983 984 0
-78 83 983 -984 0
-78 83 -983 984 0
-78 83 -983 -984 0
-2 12 65 985 0
65 -87 -985 986 0
-87 96 -986 987 0
96 -97 -100 -987 0
11 35 -36 988 0
-36 53 -988 989 0
53 54 -989 990 0
54 65 -990 991 0
65 73 -991 992 0
73 -81 -88 -992 0
-5 -49 53 993 0
53 -61 -993 994 0
-61 64 -994 995 0
64 -65 99 -995 0
-6 -10 -22 996 0
-22 -65 -996 997 0
-65 81 99 -997 0
46 -59 76 100 0
11 -42 -51 83 0
-55 -57 63 998 0
-55 -57 63 -998 0
19 20 -29 999 0
-29 -52 -999 1000 0
-52 -58 93 -1000 0
13 30 40 1001 0
40 41 -1001 1002 0
41 -44 -1002 1003 0
-44 -54 -1003 1004 0
-54 69 -80 -1004 0
-22 25 -31 1005 0
-31 34 89 -1005 0
-27 43 83 1006 0
-27 43 83 -1006 0
33 -40 49 1007 0
49 -56 -1007 1008 0
-56 80 89 -1008 0
9 -13 -35 1009 0
-35 38 -1009 1010 0
38 44 -1010 1011 0
44 -51 -1011 1012 0
-51 -54 -1012 1013 0
-54 75 -1013 1014 0
75 -83 -100 -1014 0
-2 15 -20 1015 0
-20 -36 -1015 1016 0
-36 39 -1016 1017 0
39 -42 -72 -1017 0
-8 -17 28 1018 0
28 -29 -1018 1019 0
-29 -47 -1019 1020 0
-47 -87 90 -1020 0
35 74 86 1021 0
35 74 86 -1021 0
39 66 -94 96 0
-3 -29 84 1022 0
-3 -29 84 -1022 0
-22 37 -74 1023 0
-22 37 -74 -1023 0
-2 -44 1024 1025 0
-2 -44 1024 -1025 0
-2 -44 -1024 1025 0
-2 -44 -1024 -1025 0
-12 -21 41 1026 0
41 -55 -1026 1027 0
-55 -67 96 -1027 0
-35 -49 55 1028 0
55 62 -1028 1029 0
62 89 -93 -1029 0
21 -89 97 1030 0
21 -89 97 -1030 0
-83 96 1031 1032 0
-83 96 1031 -1032 0
-83 96 -1031 1032 0
-83 96 -1031 -1032 0
6 -34 50 1033 0
50 65 -1033 1034 0
65 -71 -1034 1035 0
-71 -81 88 -1035 0
13 -14 -36 1036 0
-36 60 96 -1036 0
-26 -37 -42 1037 0
-26 -37 -42 -1037 0
-20 -75 1038 1039 0
-20 -75 1038 -1039 0
-20 -75 -1038 1039 0
-20 -75 -1038 -1039 0
16 -29 -44 1040 0
16 -29 -44 -1040 0
-18 21 -31 1041 0
-31 46 64 -1041 0
-28 -40 -46 1042 0
-46 69 -1042 1043 0
69 74 -1043 1044 0
74 90 -1044 1045 0
90 92 -100 -1045 0
31 71 76 91 0
-9 23 -25 -45 0
31 -32 44 89 0
13 15 -37 1046 0
-37 40 -1046 1047 0
40 42 -63 -1047 0
20 -25 53 1048 0
53 64 -1048 1049 0
64 -66 -1049 1050 0
-66 -70 97 -1050 0
-37 41 -58 71 0
15 -25 -63 -98 0
-14 -23 29 1051 0
29 -83 -95 -1051 0
23 25 78 1052 0
23 25 78 -1052 0
33 46 -66 1053 0
-66 -75 -1053 1054 0
-75 -82 -1054 1055 0
-82 86 -99 -1055 0
-8 -37 -48 1056 0
-48 -65 -1056 1057 0
-65 68 -83 -1057 0
-26 -58 1058 1059 0
-26 -58 1058 -1059 0
-26 -58 -1058 1059 0
-26 -58 -1058 -1059 0
-6 17 -59 1060 0
-59 79 -1060 1061 0
79 -84 87 -1061 0
-5 10 -23 1062 0
-23 41 -1062 1063 0
41 -51 -1063 1064 0
-51 55 -1064 1065 0
55 58 -1065 1066 0
58 -60 -1066 1067 0
-60 -69 -95 -1067 0
44 49 56 1068 0
44 49 56 -1068 0
50 88 1069 1070 0
50 88 1069 -1070 0
50 88 -1069 1070 0
50 88 -1069 -1070 0
-16 -53 63 1071 0
63 81 -1071 1072 0
81 88 89 -1072 0
32 40 43 1073 0
43 50 -1073 1074 0
50 -83 -1074 1075 0
-83 86 -99 -1075 0
14 -20 -37 1076 0
-37 -39 -78 -1076 0
23 -40 -45 1077 0
-45 48 -1077 1078 0
48 62 -1078 1079 0
62 -73 95 -1079 0
-13 31 34 1080 0
34 40 -56 -1080 0
-18 -47 -73 88 0
-3 38 -40 1081 0
-40 73 84 -1081 0
26 47 48 89 0
28 43 55 1082 0
55 77 86 -1082 0
42 -45 87 1083 0
42 -45 87 -1083 0
10 -27 -71 -75 0
-6 -10 -22 79 0
-1 3 -4 1084 0
-4 14 -1084 1085 0
14 -18 -1085 1086 0
-18 -21 -1086 1087 0
-21 25 -1087 1088 0
25 -61 83 -1088 0
24 48 51 1089 0
51 54 -57 -1089 0
63 -74 -85 1090 0
63 -74 -85 -1090 0
-12 14 18 1091 0
18 64 -1091 1092 0
64 82 -87 -1092 0
19 23 35 1093 0
35 -52 -1093 1094 0
-52 -91 -1094 1095 0
-91 96 100 -1095 0
-36 -55 72 -97 0
-16 65 75 -84 0
61 65 -68 1096 0
61 65 -68 -1096 0
2 -16 -32 100 0
-12 65 -80 1097 0
-80 91 -1097 1098 0
91 97 100 -1098 0
-39 -44 -51 1099 0
-51 -70 -1099 1100 0
-70 -94 -99 -1100 0
-14 76 81 1101 0
81 -84 -97 -1101 0
3 65 -67 1102 0
-67 -70 -91 -1102 0
22 46 -56 1103 0
22 46 -56 -1103 0
-12 50 58 1104 0
-12 50 58 -1104 0
10 96 97 1105 0
10 96 97 -1105 0
64 -73 94 1106 0
64 -73 94 -1106 0
-8 55 -67 1107 0
-67 71 -1107 1108 0
71 73 -1108 1109 0
73 -76 84 -1109 0
-30 65 71 1110 0
-30 65 71 -1110 0
-1 -5 32 -56 0
-34 -44 55 1111 0
55 56 -97 -1111 0
-8 15 20 1112 0
20 -25 -1112 1113 0
-25 35 -1113 1114 0
35 -56 69 -1114 0
9 52 86 -91 0
-5 25 72 1115 0
72 -74 -1115 1116 0
-74 -79 -1116 1117 0
-79 83 -1117 1118 0
83 89 100 -1118 0
26 43 -61 1119 0
-61 -74 -1119 1120 0
-74 78 -1120 1121 0
78 90 -1121 1122 0
90 -93 99 -1122 0
-11 -31 -34 -50 0
-28 -37 -57 1123 0
-28 -37 -57 -1123 0
16 27 -28 1124 0
-28 -38 -1124 1125 0
-38 -41 -1125 1126 0
-41 44 -1126 1127 0
44 -52 -1127 1128 0
-52 -54 -98 -1128 0
-11 26 48 1129 0
48 -71 -75 -1129 0
9 -19 -27 1130 0
-27 -32 -1130 1131 0
-32 -64 77 -1131 0
-2 -55 -57 81 0
-10 14 -66 1132 0
-66 -69 -94 -1132 0
6 11 70 1133 0
6 11 70 -1133 0
-18 -58 83 1134 0
-18 -58 83 -1134 0
30 64 -78 1135 0
-78 -93 98 -1135 0
10 11 -23 1136 0
-23 -53 -1136 1137 0
-53 -65 82 -1137 0
7 10 12 1138 0
12 44 -1138 1139 0
44 82 -88 -1139 0
16 19 20 1140 0
20 -52 -1140 1141 0
-52 54 -1141 1142 0
54 -74 -1142 1143 0
-74 78 -93 -1143 0
6 -76 96 1144 0
6 -76 96 -1144 0
4 -50 70 -84 0
-9 12 -61 93 0
25 -77 1145 1146 0
25 -77 1145 -1146 0
25 -77 -1145 1146 0
25 -77 -1145 -1146 0
1 3 5 1147 0
5 40 -1147 1148 0
40 -49 -1148 1149 0
-49 52 -1149 1150 0
52 72 73 -1150 0
4 -46 82 1151 0
4 -46 82 -1151 0
28 -37 -49 1152 0
-49 -77 -1152 1153 0
-77 -90 -100 -1153 0
-1 60 71 1154 0
-1 60 71 -1154 0
-10 19 29 1155 0
29 -59 65 -1155 0
55 74 75 1156 0
55 74 75 -1156 0
-31 -51 62 1157 0
62 -67 -1157 1158 0
-67 -86 -1158 1159 0
-86 88 -1159 1160 0
88 93 -99 -1160 0
33 96 -98 1161 0
33 96 -98 -1161 0
-3 -25 -35 1162 0
-35 78 -1162 1163 0
78 80 -1163 1164 0
80 -95 97 -1164 0
-21 -36 1165 1166 0
-21 -36 1165 -1166 0
-21 -36 -1165 1166 0
-21 -36 -1165 -1166 0
15 54 -98 1167 0
15 54 -98 -1167 0
-80 -93 1168 1169 0
-80 -93 1168 -1169 0
-80 -93 -1168 1169 0
-80 -93 -1168 -1169 0
-12 -14 -37 1170 0
-37 39 -40 -1170 0
18 56 -57 1171 0
-57 -71 81 -1171 0
30 57 66 1172 0
66 -78 -82 -1172 0
51 -54 -99 1173 0
51 -54 -99 -1173 0
41 52 63 1174 0
63 66 95 -1174 0
20 -34 38 1175 0
38 -49 -54 -1175 0
3 -10 -19 1176 0
-19 -36 -41 -1176 0
3 59 60 1177 0
60 -76 -1177 1178 0
-76 80 82 -1178 0
5 6 -21 1179 0
-21 -24 -1179 1180 0
-24 51 88 -1180 0
8 -23 -32 1181 0
-32 -69 -94 -1181 0
-4 16 -17 1182 0
-17 83 86 -1182 0
-8 10 11 1183 0
11 -13 -1183 1184 0
-13 15 -1184 1185 0
15 16 -1185 1186 0
16 -18 -1186 1187 0
-18 -23 83 -1187 0
-3 69 -75 -87 0
-61 82 1188 1189 0
-61 82 1188 -1189 0
-61 82 -1188 1189 0
-61 82 -1188 -1189 0
-12 -21 33 1190 0
33 44 -62 -1190 0
-46 54 55 1191 0
55 74 89 -1191 0
7 -25 60 -96 0
-39 44 61 -89 0
-9 -17 45 1192 0
45 82 99 -1192 0
-36 42 64 1193 0
64 78 -93 -1193 0
93 -97 1194 1195 0
93 -97 1194 -1195 0
93 -97 -1194 1195 0
93 -97 -1194 -1195 0
-8 19 -58 -65 0
-31 -36 83 97 0
-14 -17 27 1196 0
27 53 85 -1196 0
2 66 73 1197 0
73 82 -1197 1198 0
82 84 -1198 1199 0
84 89 100 -1199 0
-20 -29 40 1200 0
40 41 -1200 1201 0
41 48 -1201 1202 0
48 -58 -1202 1203 0
-58 -85 93 -1203 0
-12 31 -36 1204 0
-36 47 -1204 1205 0
47 -64 -1205 1206 0
-64 69 -89 -1206 0
-6 47 51 -80 0
-20 -33 52 1207 0
52 -64 89 -1207 0
-35 54 87 1208 0
-35 54 87 -1208 0
32 42 56 1209 0
56 -62 -1209 1210 0
-62 65 -1210 1211 0
65 83 -85 -1211 0
-21 41 70 1212 0
-21 41 70 -1212 0
3 4 -9 1213 0
-9 -23 -1213 1214 0
-23 31 -1214 1215 0
31 -33 -83 -1215 0
45 87 1216 1217 0
45 87 1216 -1217 0
45 87 -1216 1217 0
45 87 -1216 -1217 0
-27 38 1218 1219 0
-27 38 1218 -1219 0
-27 38 -1218 1219 0
-27 38 -1218 -1219 0
10 -25 -30 1220 0
-30 -34 -1220 1221 0
-34 47 -1221 1222 0
47 52 -1222 1223 0
52 -65 -1223 1224 0
-65 69 -1224 1225 0
69 -91 95 -1225 0
12 -19 -87 1226 0
12 -19 -87 -1226 0
30 -40 -51 -88 0
29 31 49 1227 0
49 85 -1227 1228 0
85 -88 95 -1228 0
15 -46 1229 1230 0
15 -46 1229 -1230 0
15 -46 -1229 1230 0
15 -46 -1229 -1230 0
4 54 57 1231 0
57 -84 90 -1231 0
-40 43 -53 1232 0
-40 43 -53 -1232 0
27 28 59 1233 0
27 28 59 -1233 0
26 32 47 1234 0
47 62 -1234 1235 0
62 69 -74 -1235 0
-9 -26 -86 1236 0
-9 -26 -86 -1236 0
18 23 32 1237 0
32 -44 -1237 1238 0
-44 -85 88 -1238 0
6 8 -29 1239 0
-29 -31 -1239 1240 0
-31 40 -1240 1241 0
40 -46 -1241 1242 0
-46 -50 -99 -1242 0
49 54 -69 -95 0
7 34 -69 -98 0
23 79 1243 1244 0
23 79 1243 -1244 0
23 79 -1243 1244 0
23 79 -1243 -1244 0
-46 -56 -79 1245 0
-79 86 -92 -1245 0
12 15 -22 1246 0
-22 28 -1246 1247 0
28 80 -84 -1247 0
31 45 46 -81 0
-21 -25 53 1248 0
53 54 -1248 1249 0
54 -61 -1249 1250 0
-61 -66 -72 -1250 0
8 10 27 1251 0
27 -40 -1251 1252 0
-40 47 -1252 1253 0
47 -48 -1253 1254 0
-48 -85 -1254 1255 0
-85 94 -97 -1255 0
-3 19 -30 1256 0
-30 -62 -1256 1257 0
-62 -68 -81 -1257 0
-2 47 54 1258 0
54 -55 93 -1258 0
-16 -36 41 1259 0
41 -48 -1259 1260 0
-48 -63 -1260 1261 0
-63 -67 -72 -1261 0
39 -65 -79 1262 0
-79 -83 -1262 1263 0
-83 -87 97 -1263 0
50 57 -68 1264 0
-68 -97 99 -1264 0
27 -40 -67 1265 0
-67 -70 83 -1265 0
2 -8 -32 1266 0
-32 79 -1266 1267 0
79 -84 -1267 1268 0
-84 91 92 -1268 0
-10 36 -46 1269 0
-46 66 -1269 1270 0
66 68 -1270 1271 0
68 81 -1271 1272 0
81 82 98 -1272 0
61 74 77 1273 0
77 79 -93 -1273 0
-9 -50 -73 -79 0
-8 -19 62 1274 0
62 63 -1274 1275 0
63 -69 90 -1275 0
21 59 85 -98 0
21 -42 50 1276 0
50 72 78 -1276 0
-14 -33 46 1277 0
46 -87 -94 -1277 0
78 -91 1278 1279 0
78 -91 1278 -1279 0
78 -91 -1278 1279 0
78 -91 -1278 -1279 0
-1 -16 -19 1280 0
-19 -40 -1280 1281 0
-40 -52 -1281 1282 0
-52 76 -1282 1283 0
76 77 -88 -1283 0
18 50 -55 1284 0
-55 62 -1284 1285 0
62 89 -90 -1285 0
-27 30 -39 1286 0
-39 -42 -1286 1287 0
-42 -78 -1287 1288 0
-78 -83 -1288 1289 0
-83 89 90 -1289 0
21 -36 40 98 0
5 -6 -9 1290 0
-9 -87 92 -1290 0
-11 21 74 -96 0
8 20 44 1291 0
44 -45 -1291 1292 0
-45 62 -1292 1293 0
62 63 -1293 1294 0
63 74 -1294 1295 0
74 82 -1295 1296 0
82 -90 -97 -1296 0
8 -14 -58 1297 0
-58 62 -1297 1298 0
62 -70 -1298 1299 0
-70 73 -74 -1299 0
-15 -19 -31 1300 0
-31 -74 90 -1300 0
9 93 1301 1302 0
9 93 1301 -1302 0
9 93 -1301 1302 0
9 93 -1301 -1302 0
55 -68 85 1303 0
55 -68 85 -1303 0
20 -51 -60 92 0
2 -64 -66 72 0
28 29 -38 1304 0
-38 -61 -67 -1304 0
22 39 49 1305 0
49 50 -1305 1306 0
50 -53 -1306 1307 0
-53 -63 -1307 1308 0
-63 78 -89 -1308 0
-31 34 -40 1309 0
-40 43 98 -1309 0
-36 52 92 1310 0
-36 52 92 -1310 0
42 -49 58 1311 0
58 -65 -1311 1312 0
-65 89 98 -1312 0
-9 27 1313 1314 0
-9 27 1313 -1314 0
-9 27 -1313 1314 0
-9 27 -1313 -1314 0
18 -22 -44 1315 0
-44 47 -1315 1316 0
47 53 -1316 1317 0
53 -60 -1317 1318 0
-60 -63 -1318 1319 0
-63 84 -92 -1319 0
-11 24 -29 1320 0
-29 -45 -1320 1321 0
-45 48 -1321 1322 0
48 -51 -81 -1322 0
-17 -26 37 1323 0
37 -38 -1323 1324 0
-38 -56 -1324 1325 0
-56 -96 99 -1325 0
-3 5 44 1326 0
44 83 95 -1326 0
48 75 1327 1328 0
48 75 1327 -1328 0
48 75 -1327 1328 0
48 75 -1327 -1328 0
-12 -38 93 1329 0
-12 -38 93 -1329 0
-31 46 -83 1330 0
-31 46 -83 -1330 0
5 -11 -53 1331 0
5 -11 -53 -1331 0
-2 -21 -30 1332 0
-30 50 -1332 1333 0
50 -64 -76 -1333 0
6 -44 -58 1334 0
-58 64 -1334 1335 0
64 71 98 -1335 0
5 30 -98 1336 0
5 30 -98 -1336 0
5 15 -43 1337 0
-43 59 -1337 1338 0
59 74 -1338 1339 0
74 -80 -1339 1340 0
-80 -90 97 -1340 0
22 -23 -45 69 0
-35 -46 -51 1341 0
-35 -46 -51 -1341 0
-29 -84 1342 1343 0
-29 -84 1342 -1343 0
-29 -84 -1342 1343 0
-29 -84 -1342 -1343 0
25 -38 -53 1344 0
25 -38 -53 -1344 0
1 -9 -27 1345 0
-27 30 -1345 1346 0
30 -40 -1346 1347 0
-40 55 73 -1347 0
-37 -49 -55 1348 0
-55 78 -1348 1349 0
78 83 99 -1349 0
40 80 85 100 0
-18 32 -34 -54 0
40 -41 53 98 0
6 22 24 1350 0
24 -46 -1350 1351 0
-46 49 -1351 1352 0
49 51 -72 -1352 0
29 -34 62 1353 0
62 73 -1353 1354 0
73 -75 -79 -1354 0
-7 -46 50 1355 0
50 -67 80 -1355 0
-4 24 -34 -72 0
-23 -32 38 -92 0
-8 32 34 87 0
42 55 -75 1356 0
-75 -84 -1356 1357 0
-84 -91 95 -1357 0
-17 -46 -57 1358 0
-57 -74 -1358 1359 0
-74 77 -92 -1359 0
-35 -67 1360 1361 0
-35 -67 1360 -1361 0
-35 -67 -1360 1361 0
-35 -67 -1360 -1361 0
-4 -15 26 1362 0
26 -68 -1362 1363 0
-68 88 -1363 1364 0
88 -93 96 -1364 0
-14 19 -32 1365 0
-32 50 -1365 1366 0
50 -60 -1366 1367 0
-60 64 -1367 1368 0
64 67 -1368 1369 0
67 -69 -78 -1369 0
53 58 65 1370 0
53 58 65 -1370 0
59 97 1371 1372 0
59 97 1371 -1372 0
59 97 -1371 1372 0
59 97 -1371 -1372 0
-8 -25 -62 1373 0
-62 72 -1373 1374 0
72 90 -1374 1375 0
90 97 98 -1375 0
41 49 52 1376 0
52 59 -1376 1377 0
59 -92 95 -1377 0
4 23 -29 1378 0
-29 -46 -1378 1379 0
-46 -48 -87 -1379 0
32 -49 -54 1380 0
-54 57 -1380 1381 0
57 71 -82 -1381 0
-22 40 43 1382 0
43 49 -65 -1382 0
-27 -56 -82 97 0
-12 47 -49 1383 0
-49 82 93 -1383 0
35 56 57 98 0
37 52 64 1384 0
64 86 95 -1384 0
51 -54 96 1385 0
51 -54 96 -1385 0
19 -36 -80 -84 0
-15 -19 -31 88 0
-10 12 -13 1386 0
-13 23 -1386 1387 0
23 -27 -1387 1388 0
-27 -30 -1388 1389 0
-30 34 -1389 1390 0
34 -70 92 -1390 0
33 57 60 1391 0
60 63 -66 -1391 0
72 -83 -94 1392 0
72 -83 -94 -1392 0
5 9 -21 1393 0
-21 23 -1393 1394 0
23 27 -1394 1395 0
27 73 -1395 1396 0
73 91 -96 -1396 0
-6 28 32 1397 0
32 44 -1397 1398 0
44 -61 -100 -1398 0
-45 -64 81 1399 0
-45 -64 81 -1399 0
-25 74 84 -93 0
9 70 74 -77 0
6 9 11 1400 0
11 -25 -41 -1400 0
-3 -8 -21 1401 0
-21 74 -1401 1402 0
74 -89 100 -1402 0
-6 -48 -53 1403 0
-53 -60 -79 -1403 0
-23 85 90 -93 0
12 74 -76 1404 0
-76 -79 -100 -1404 0
31 55 -65 1405 0
31 55 -65 -1405 0
5 6 -21 1406 0
-21 59 67 -1406 0
3 19 1407 1408 0
3 19 1407 -1408 0
3 19 -1407 1408 0
3 19 -1407 -1408 0
73 -82 1409 1410 0
73 -82 1409 -1410 0
73 -82 -1409 1410 0
73 -82 -1409 -1410 0
-17 64 -76 1411 0
-76 80 -1411 1412 0
80 82 -1412 1413 0
82 -85 93 -1413 0
-39 74 80 1414 0
-39 74 80 -1414 0
-6 -10 -14 1415 0
-14 41 -65 -1415 0
-43 -53 64 65 0
